Instance0
Gap





10.03%
10.03%
10.03%
9.38%
8.98%
8.93%
7.93%
CPXPARAM_MIP_Cuts_CPXPARAM_MIP_Cuts_Gomory-CPXPARAM_MIP_Cuts_Disjunctive-CPXPARAM_MIP_Cuts_MIRCut-CPXPARAM_MIP_Cuts_Covers-CPXPARAM_MIP_Cuts_FlowCovers 0
Instance1
CPXPARAM_MIP_Cuts_CPXPARAM_MIP_Cuts_Gomory-CPXPARAM_MIP_Cuts_Disjunctive-CPXPARAM_MIP_Cuts_MIRCut-CPXPARAM_MIP_Cuts_Covers-CPXPARAM_MIP_Cuts_FlowCovers 0
Instance2
CPXPARAM_MIP_Cuts_CPXPARAM_MIP_Cuts_Gomory-CPXPARAM_MIP_Cuts_Disjunctive-CPXPARAM_MIP_Cuts_MIRCut-CPXPARAM_MIP_Cuts_Covers-CPXPARAM_MIP_Cuts_FlowCovers 0
Instance3
CPXPARAM_MIP_Cuts_CPXPARAM_MIP_Cuts_Gomory-CPXPARAM_MIP_Cuts_Disjunctive-CPXPARAM_MIP_Cuts_MIRCut-CPXPARAM_MIP_Cuts_Covers-CPXPARAM_MIP_Cuts_FlowCovers 5
Instance4
CPXPARAM_MIP_Cuts_CPXPARAM_MIP_Cuts_Gomory-CPXPARAM_MIP_Cuts_Disjunctive-CPXPARAM_MIP_Cuts_MIRCut-CPXPARAM_MIP_Cuts_Covers-CPXPARAM_MIP_Cuts_FlowCovers 5
Instance5
Gap



67.95%
65.11%
60.96%
45.89%
45.14%
44.73%
44.73%
42.62%
CPXPARAM_MIP_Cuts_CPXPARAM_MIP_Cuts_Gomory-CPXPARAM_MIP_Cuts_Disjunctive-CPXPARAM_MIP_Cuts_MIRCut-CPXPARAM_MIP_Cuts_Covers-CPXPARAM_MIP_Cuts_FlowCovers 0
Instance6
CPXPARAM_MIP_Cuts_CPXPARAM_MIP_Cuts_Gomory-CPXPARAM_MIP_Cuts_Disjunctive-CPXPARAM_MIP_Cuts_MIRCut-CPXPARAM_MIP_Cuts_Covers-CPXPARAM_MIP_Cuts_FlowCovers 1
Instance7
CPXPARAM_MIP_Cuts_CPXPARAM_MIP_Cuts_Gomory-CPXPARAM_MIP_Cuts_Disjunctive-CPXPARAM_MIP_Cuts_MIRCut-CPXPARAM_MIP_Cuts_Covers-CPXPARAM_MIP_Cuts_FlowCovers 1
Instance8
CPXPARAM_MIP_Cuts_CPXPARAM_MIP_Cuts_Gomory-CPXPARAM_MIP_Cuts_Disjunctive-CPXPARAM_MIP_Cuts_MIRCut-CPXPARAM_MIP_Cuts_Covers-CPXPARAM_MIP_Cuts_FlowCovers 0
Instance9
CPXPARAM_MIP_Cuts_CPXPARAM_MIP_Cuts_Gomory-CPXPARAM_MIP_Cuts_Disjunctive-CPXPARAM_MIP_Cuts_MIRCut-CPXPARAM_MIP_Cuts_Covers-CPXPARAM_MIP_Cuts_FlowCovers 4
Instance10
Gap


0.35%
0.35%
0.35%
0.35%
0.35%
0.00%
CPXPARAM_MIP_Cuts_CPXPARAM_MIP_Cuts_Gomory-CPXPARAM_MIP_Cuts_Disjunctive-CPXPARAM_MIP_Cuts_MIRCut-CPXPARAM_MIP_Cuts_Covers-CPXPARAM_MIP_Cuts_FlowCovers 0
Instance11
CPXPARAM_MIP_Cuts_CPXPARAM_MIP_Cuts_Gomory-CPXPARAM_MIP_Cuts_Disjunctive-CPXPARAM_MIP_Cuts_MIRCut-CPXPARAM_MIP_Cuts_Covers-CPXPARAM_MIP_Cuts_FlowCovers 0
Instance12
CPXPARAM_MIP_Cuts_CPXPARAM_MIP_Cuts_Gomory-CPXPARAM_MIP_Cuts_Disjunctive-CPXPARAM_MIP_Cuts_MIRCut-CPXPARAM_MIP_Cuts_Covers-CPXPARAM_MIP_Cuts_FlowCovers 0
Instance13
CPXPARAM_MIP_Cuts_CPXPARAM_MIP_Cuts_Gomory-CPXPARAM_MIP_Cuts_Disjunctive-CPXPARAM_MIP_Cuts_MIRCut-CPXPARAM_MIP_Cuts_Covers-CPXPARAM_MIP_Cuts_FlowCovers 2
Instance14
CPXPARAM_MIP_Cuts_CPXPARAM_MIP_Cuts_Gomory-CPXPARAM_MIP_Cuts_Disjunctive-CPXPARAM_MIP_Cuts_MIRCut-CPXPARAM_MIP_Cuts_Covers-CPXPARAM_MIP_Cuts_FlowCovers 0
Instance15
Gap

0.00%
0
CPXPARAM_MIP_Cuts_CPXPARAM_MIP_Cuts_Gomory-CPXPARAM_MIP_Cuts_Disjunctive-CPXPARAM_MIP_Cuts_MIRCut-CPXPARAM_MIP_Cuts_Covers-CPXPARAM_MIP_Cuts_FlowCovers 0
Instance16
CPXPARAM_MIP_Cuts_CPXPARAM_MIP_Cuts_Gomory-CPXPARAM_MIP_Cuts_Disjunctive-CPXPARAM_MIP_Cuts_MIRCut-CPXPARAM_MIP_Cuts_Covers-CPXPARAM_MIP_Cuts_FlowCovers 0
Instance17
CPXPARAM_MIP_Cuts_CPXPARAM_MIP_Cuts_Gomory-CPXPARAM_MIP_Cuts_Disjunctive-CPXPARAM_MIP_Cuts_MIRCut-CPXPARAM_MIP_Cuts_Covers-CPXPARAM_MIP_Cuts_FlowCovers 0
Instance18
CPXPARAM_MIP_Cuts_CPXPARAM_MIP_Cuts_Gomory-CPXPARAM_MIP_Cuts_Disjunctive-CPXPARAM_MIP_Cuts_MIRCut-CPXPARAM_MIP_Cuts_Covers-CPXPARAM_MIP_Cuts_FlowCovers 0
Instance19
CPXPARAM_MIP_Cuts_CPXPARAM_MIP_Cuts_Gomory-CPXPARAM_MIP_Cuts_Disjunctive-CPXPARAM_MIP_Cuts_MIRCut-CPXPARAM_MIP_Cuts_Covers-CPXPARAM_MIP_Cuts_FlowCovers 0
Instance20
Gap



5.55%
5.55%
5.55%
5.06%
4.92%
4.88%
4.67%
CPXPARAM_MIP_Cuts_CPXPARAM_MIP_Cuts_Gomory-CPXPARAM_MIP_Cuts_Disjunctive-CPXPARAM_MIP_Cuts_MIRCut-CPXPARAM_MIP_Cuts_Covers-CPXPARAM_MIP_Cuts_FlowCovers 0
Instance21
CPXPARAM_MIP_Cuts_CPXPARAM_MIP_Cuts_Gomory-CPXPARAM_MIP_Cuts_Disjunctive-CPXPARAM_MIP_Cuts_MIRCut-CPXPARAM_MIP_Cuts_Covers-CPXPARAM_MIP_Cuts_FlowCovers 0
Instance22
CPXPARAM_MIP_Cuts_CPXPARAM_MIP_Cuts_Gomory-CPXPARAM_MIP_Cuts_Disjunctive-CPXPARAM_MIP_Cuts_MIRCut-CPXPARAM_MIP_Cuts_Covers-CPXPARAM_MIP_Cuts_FlowCovers 0
Instance23
CPXPARAM_MIP_Cuts_CPXPARAM_MIP_Cuts_Gomory-CPXPARAM_MIP_Cuts_Disjunctive-CPXPARAM_MIP_Cuts_MIRCut-CPXPARAM_MIP_Cuts_Covers-CPXPARAM_MIP_Cuts_FlowCovers 7
Instance24
CPXPARAM_MIP_Cuts_CPXPARAM_MIP_Cuts_Gomory-CPXPARAM_MIP_Cuts_Disjunctive-CPXPARAM_MIP_Cuts_MIRCut-CPXPARAM_MIP_Cuts_Covers-CPXPARAM_MIP_Cuts_FlowCovers 2
Instance25
Gap



74.89%
65.96%
58.35%
53.12%
52.57%
CPXPARAM_MIP_Cuts_CPXPARAM_MIP_Cuts_Gomory-CPXPARAM_MIP_Cuts_Disjunctive-CPXPARAM_MIP_Cuts_MIRCut-CPXPARAM_MIP_Cuts_Covers-CPXPARAM_MIP_Cuts_FlowCovers 0
Instance26
CPXPARAM_MIP_Cuts_CPXPARAM_MIP_Cuts_Gomory-CPXPARAM_MIP_Cuts_Disjunctive-CPXPARAM_MIP_Cuts_MIRCut-CPXPARAM_MIP_Cuts_Covers-CPXPARAM_MIP_Cuts_FlowCovers 0
Instance27
CPXPARAM_MIP_Cuts_CPXPARAM_MIP_Cuts_Gomory-CPXPARAM_MIP_Cuts_Disjunctive-CPXPARAM_MIP_Cuts_MIRCut-CPXPARAM_MIP_Cuts_Covers-CPXPARAM_MIP_Cuts_FlowCovers 0
Instance28
CPXPARAM_MIP_Cuts_CPXPARAM_MIP_Cuts_Gomory-CPXPARAM_MIP_Cuts_Disjunctive-CPXPARAM_MIP_Cuts_MIRCut-CPXPARAM_MIP_Cuts_Covers-CPXPARAM_MIP_Cuts_FlowCovers 4
Instance29
CPXPARAM_MIP_Cuts_CPXPARAM_MIP_Cuts_Gomory-CPXPARAM_MIP_Cuts_Disjunctive-CPXPARAM_MIP_Cuts_MIRCut-CPXPARAM_MIP_Cuts_Covers-CPXPARAM_MIP_Cuts_FlowCovers 4
Instance30
Gap
111.50%
92.96%
92.96%
92.96%
CPXPARAM_MIP_Cuts_CPXPARAM_MIP_Cuts_Gomory-CPXPARAM_MIP_Cuts_Disjunctive-CPXPARAM_MIP_Cuts_MIRCut-CPXPARAM_MIP_Cuts_Covers-CPXPARAM_MIP_Cuts_FlowCovers 0
Instance31
CPXPARAM_MIP_Cuts_CPXPARAM_MIP_Cuts_Gomory-CPXPARAM_MIP_Cuts_Disjunctive-CPXPARAM_MIP_Cuts_MIRCut-CPXPARAM_MIP_Cuts_Covers-CPXPARAM_MIP_Cuts_FlowCovers 0
Instance32
CPXPARAM_MIP_Cuts_CPXPARAM_MIP_Cuts_Gomory-CPXPARAM_MIP_Cuts_Disjunctive-CPXPARAM_MIP_Cuts_MIRCut-CPXPARAM_MIP_Cuts_Covers-CPXPARAM_MIP_Cuts_FlowCovers 0
Instance33
CPXPARAM_MIP_Cuts_CPXPARAM_MIP_Cuts_Gomory-CPXPARAM_MIP_Cuts_Disjunctive-CPXPARAM_MIP_Cuts_MIRCut-CPXPARAM_MIP_Cuts_Covers-CPXPARAM_MIP_Cuts_FlowCovers 0
Instance34
CPXPARAM_MIP_Cuts_CPXPARAM_MIP_Cuts_Gomory-CPXPARAM_MIP_Cuts_Disjunctive-CPXPARAM_MIP_Cuts_MIRCut-CPXPARAM_MIP_Cuts_Covers-CPXPARAM_MIP_Cuts_FlowCovers 1
Instance35
Gap

23.59%
23.59%
23.59%
23.59%
23.19%
18.99%
14.33%
11.02%
10.93%
0
CPXPARAM_MIP_Cuts_CPXPARAM_MIP_Cuts_Gomory-CPXPARAM_MIP_Cuts_Disjunctive-CPXPARAM_MIP_Cuts_MIRCut-CPXPARAM_MIP_Cuts_Covers-CPXPARAM_MIP_Cuts_FlowCovers 0
Instance36
CPXPARAM_MIP_Cuts_CPXPARAM_MIP_Cuts_Gomory-CPXPARAM_MIP_Cuts_Disjunctive-CPXPARAM_MIP_Cuts_MIRCut-CPXPARAM_MIP_Cuts_Covers-CPXPARAM_MIP_Cuts_FlowCovers 0
Instance37
CPXPARAM_MIP_Cuts_CPXPARAM_MIP_Cuts_Gomory-CPXPARAM_MIP_Cuts_Disjunctive-CPXPARAM_MIP_Cuts_MIRCut-CPXPARAM_MIP_Cuts_Covers-CPXPARAM_MIP_Cuts_FlowCovers 0
Instance38
CPXPARAM_MIP_Cuts_CPXPARAM_MIP_Cuts_Gomory-CPXPARAM_MIP_Cuts_Disjunctive-CPXPARAM_MIP_Cuts_MIRCut-CPXPARAM_MIP_Cuts_Covers-CPXPARAM_MIP_Cuts_FlowCovers 3
Instance39
CPXPARAM_MIP_Cuts_CPXPARAM_MIP_Cuts_Gomory-CPXPARAM_MIP_Cuts_Disjunctive-CPXPARAM_MIP_Cuts_MIRCut-CPXPARAM_MIP_Cuts_Covers-CPXPARAM_MIP_Cuts_FlowCovers 0
Instance40
Gap




10.52%
10.26%
2.49%
2.49%
2.49%
2.45%
2.36%
CPXPARAM_MIP_Cuts_CPXPARAM_MIP_Cuts_Gomory-CPXPARAM_MIP_Cuts_Disjunctive-CPXPARAM_MIP_Cuts_MIRCut-CPXPARAM_MIP_Cuts_Covers-CPXPARAM_MIP_Cuts_FlowCovers 0
Instance41
CPXPARAM_MIP_Cuts_CPXPARAM_MIP_Cuts_Gomory-CPXPARAM_MIP_Cuts_Disjunctive-CPXPARAM_MIP_Cuts_MIRCut-CPXPARAM_MIP_Cuts_Covers-CPXPARAM_MIP_Cuts_FlowCovers 0
Instance42
CPXPARAM_MIP_Cuts_CPXPARAM_MIP_Cuts_Gomory-CPXPARAM_MIP_Cuts_Disjunctive-CPXPARAM_MIP_Cuts_MIRCut-CPXPARAM_MIP_Cuts_Covers-CPXPARAM_MIP_Cuts_FlowCovers 0
Instance43
CPXPARAM_MIP_Cuts_CPXPARAM_MIP_Cuts_Gomory-CPXPARAM_MIP_Cuts_Disjunctive-CPXPARAM_MIP_Cuts_MIRCut-CPXPARAM_MIP_Cuts_Covers-CPXPARAM_MIP_Cuts_FlowCovers 3
Instance44
CPXPARAM_MIP_Cuts_CPXPARAM_MIP_Cuts_Gomory-CPXPARAM_MIP_Cuts_Disjunctive-CPXPARAM_MIP_Cuts_MIRCut-CPXPARAM_MIP_Cuts_Covers-CPXPARAM_MIP_Cuts_FlowCovers 4
Instance45
Gap






0
CPXPARAM_MIP_Cuts_CPXPARAM_MIP_Cuts_Gomory-CPXPARAM_MIP_Cuts_Disjunctive-CPXPARAM_MIP_Cuts_MIRCut-CPXPARAM_MIP_Cuts_Covers-CPXPARAM_MIP_Cuts_FlowCovers 0
Instance46
CPXPARAM_MIP_Cuts_CPXPARAM_MIP_Cuts_Gomory-CPXPARAM_MIP_Cuts_Disjunctive-CPXPARAM_MIP_Cuts_MIRCut-CPXPARAM_MIP_Cuts_Covers-CPXPARAM_MIP_Cuts_FlowCovers 0
Instance47
CPXPARAM_MIP_Cuts_CPXPARAM_MIP_Cuts_Gomory-CPXPARAM_MIP_Cuts_Disjunctive-CPXPARAM_MIP_Cuts_MIRCut-CPXPARAM_MIP_Cuts_Covers-CPXPARAM_MIP_Cuts_FlowCovers 0
Instance48
CPXPARAM_MIP_Cuts_CPXPARAM_MIP_Cuts_Gomory-CPXPARAM_MIP_Cuts_Disjunctive-CPXPARAM_MIP_Cuts_MIRCut-CPXPARAM_MIP_Cuts_Covers-CPXPARAM_MIP_Cuts_FlowCovers 3
Instance49
CPXPARAM_MIP_Cuts_CPXPARAM_MIP_Cuts_Gomory-CPXPARAM_MIP_Cuts_Disjunctive-CPXPARAM_MIP_Cuts_MIRCut-CPXPARAM_MIP_Cuts_Covers-CPXPARAM_MIP_Cuts_FlowCovers 9
Instance50
Gap

0.01%
CPXPARAM_MIP_Cuts_CPXPARAM_MIP_Cuts_Gomory-CPXPARAM_MIP_Cuts_Disjunctive-CPXPARAM_MIP_Cuts_MIRCut-CPXPARAM_MIP_Cuts_Covers-CPXPARAM_MIP_Cuts_FlowCovers 0
Instance51
CPXPARAM_MIP_Cuts_CPXPARAM_MIP_Cuts_Gomory-CPXPARAM_MIP_Cuts_Disjunctive-CPXPARAM_MIP_Cuts_MIRCut-CPXPARAM_MIP_Cuts_Covers-CPXPARAM_MIP_Cuts_FlowCovers 0
Instance52
CPXPARAM_MIP_Cuts_CPXPARAM_MIP_Cuts_Gomory-CPXPARAM_MIP_Cuts_Disjunctive-CPXPARAM_MIP_Cuts_MIRCut-CPXPARAM_MIP_Cuts_Covers-CPXPARAM_MIP_Cuts_FlowCovers 0
Instance53
CPXPARAM_MIP_Cuts_CPXPARAM_MIP_Cuts_Gomory-CPXPARAM_MIP_Cuts_Disjunctive-CPXPARAM_MIP_Cuts_MIRCut-CPXPARAM_MIP_Cuts_Covers-CPXPARAM_MIP_Cuts_FlowCovers 0
Instance54
CPXPARAM_MIP_Cuts_CPXPARAM_MIP_Cuts_Gomory-CPXPARAM_MIP_Cuts_Disjunctive-CPXPARAM_MIP_Cuts_MIRCut-CPXPARAM_MIP_Cuts_Covers-CPXPARAM_MIP_Cuts_FlowCovers 0
Instance55
Gap

0.02%
0.02%
0.02%
0
CPXPARAM_MIP_Cuts_CPXPARAM_MIP_Cuts_Gomory-CPXPARAM_MIP_Cuts_Disjunctive-CPXPARAM_MIP_Cuts_MIRCut-CPXPARAM_MIP_Cuts_Covers-CPXPARAM_MIP_Cuts_FlowCovers 0
Instance56
CPXPARAM_MIP_Cuts_CPXPARAM_MIP_Cuts_Gomory-CPXPARAM_MIP_Cuts_Disjunctive-CPXPARAM_MIP_Cuts_MIRCut-CPXPARAM_MIP_Cuts_Covers-CPXPARAM_MIP_Cuts_FlowCovers 0
Instance57
CPXPARAM_MIP_Cuts_CPXPARAM_MIP_Cuts_Gomory-CPXPARAM_MIP_Cuts_Disjunctive-CPXPARAM_MIP_Cuts_MIRCut-CPXPARAM_MIP_Cuts_Covers-CPXPARAM_MIP_Cuts_FlowCovers 0
Instance58
CPXPARAM_MIP_Cuts_CPXPARAM_MIP_Cuts_Gomory-CPXPARAM_MIP_Cuts_Disjunctive-CPXPARAM_MIP_Cuts_MIRCut-CPXPARAM_MIP_Cuts_Covers-CPXPARAM_MIP_Cuts_FlowCovers 0
Instance59
CPXPARAM_MIP_Cuts_CPXPARAM_MIP_Cuts_Gomory-CPXPARAM_MIP_Cuts_Disjunctive-CPXPARAM_MIP_Cuts_MIRCut-CPXPARAM_MIP_Cuts_Covers-CPXPARAM_MIP_Cuts_FlowCovers 0
Instance60
Gap








28.89%
28.88%
17.30%
16.78%
CPXPARAM_MIP_Cuts_CPXPARAM_MIP_Cuts_Gomory-CPXPARAM_MIP_Cuts_Disjunctive-CPXPARAM_MIP_Cuts_MIRCut-CPXPARAM_MIP_Cuts_Covers-CPXPARAM_MIP_Cuts_FlowCovers 1
Instance61
CPXPARAM_MIP_Cuts_CPXPARAM_MIP_Cuts_Gomory-CPXPARAM_MIP_Cuts_Disjunctive-CPXPARAM_MIP_Cuts_MIRCut-CPXPARAM_MIP_Cuts_Covers-CPXPARAM_MIP_Cuts_FlowCovers 0
Instance62
CPXPARAM_MIP_Cuts_CPXPARAM_MIP_Cuts_Gomory-CPXPARAM_MIP_Cuts_Disjunctive-CPXPARAM_MIP_Cuts_MIRCut-CPXPARAM_MIP_Cuts_Covers-CPXPARAM_MIP_Cuts_FlowCovers 0
Instance63
CPXPARAM_MIP_Cuts_CPXPARAM_MIP_Cuts_Gomory-CPXPARAM_MIP_Cuts_Disjunctive-CPXPARAM_MIP_Cuts_MIRCut-CPXPARAM_MIP_Cuts_Covers-CPXPARAM_MIP_Cuts_FlowCovers 0
Instance64
CPXPARAM_MIP_Cuts_CPXPARAM_MIP_Cuts_Gomory-CPXPARAM_MIP_Cuts_Disjunctive-CPXPARAM_MIP_Cuts_MIRCut-CPXPARAM_MIP_Cuts_Covers-CPXPARAM_MIP_Cuts_FlowCovers 8
Instance65
Gap

37.35%
36.84%
34.72%
30.80%
28.06%
26.61%
26.52%
26.02%
CPXPARAM_MIP_Cuts_CPXPARAM_MIP_Cuts_Gomory-CPXPARAM_MIP_Cuts_Disjunctive-CPXPARAM_MIP_Cuts_MIRCut-CPXPARAM_MIP_Cuts_Covers-CPXPARAM_MIP_Cuts_FlowCovers 0
Instance66
CPXPARAM_MIP_Cuts_CPXPARAM_MIP_Cuts_Gomory-CPXPARAM_MIP_Cuts_Disjunctive-CPXPARAM_MIP_Cuts_MIRCut-CPXPARAM_MIP_Cuts_Covers-CPXPARAM_MIP_Cuts_FlowCovers 0
Instance67
CPXPARAM_MIP_Cuts_CPXPARAM_MIP_Cuts_Gomory-CPXPARAM_MIP_Cuts_Disjunctive-CPXPARAM_MIP_Cuts_MIRCut-CPXPARAM_MIP_Cuts_Covers-CPXPARAM_MIP_Cuts_FlowCovers 1
Instance68
CPXPARAM_MIP_Cuts_CPXPARAM_MIP_Cuts_Gomory-CPXPARAM_MIP_Cuts_Disjunctive-CPXPARAM_MIP_Cuts_MIRCut-CPXPARAM_MIP_Cuts_Covers-CPXPARAM_MIP_Cuts_FlowCovers 2
Instance69
CPXPARAM_MIP_Cuts_CPXPARAM_MIP_Cuts_Gomory-CPXPARAM_MIP_Cuts_Disjunctive-CPXPARAM_MIP_Cuts_MIRCut-CPXPARAM_MIP_Cuts_Covers-CPXPARAM_MIP_Cuts_FlowCovers 5
Instance70
Gap

1.86%
1.86%
1.86%
1.86%
0
CPXPARAM_MIP_Cuts_CPXPARAM_MIP_Cuts_Gomory-CPXPARAM_MIP_Cuts_Disjunctive-CPXPARAM_MIP_Cuts_MIRCut-CPXPARAM_MIP_Cuts_Covers-CPXPARAM_MIP_Cuts_FlowCovers 0
Instance71
CPXPARAM_MIP_Cuts_CPXPARAM_MIP_Cuts_Gomory-CPXPARAM_MIP_Cuts_Disjunctive-CPXPARAM_MIP_Cuts_MIRCut-CPXPARAM_MIP_Cuts_Covers-CPXPARAM_MIP_Cuts_FlowCovers 0
Instance72
CPXPARAM_MIP_Cuts_CPXPARAM_MIP_Cuts_Gomory-CPXPARAM_MIP_Cuts_Disjunctive-CPXPARAM_MIP_Cuts_MIRCut-CPXPARAM_MIP_Cuts_Covers-CPXPARAM_MIP_Cuts_FlowCovers 0
Instance73
CPXPARAM_MIP_Cuts_CPXPARAM_MIP_Cuts_Gomory-CPXPARAM_MIP_Cuts_Disjunctive-CPXPARAM_MIP_Cuts_MIRCut-CPXPARAM_MIP_Cuts_Covers-CPXPARAM_MIP_Cuts_FlowCovers 0
Instance74
CPXPARAM_MIP_Cuts_CPXPARAM_MIP_Cuts_Gomory-CPXPARAM_MIP_Cuts_Disjunctive-CPXPARAM_MIP_Cuts_MIRCut-CPXPARAM_MIP_Cuts_Covers-CPXPARAM_MIP_Cuts_FlowCovers 1
Instance75
Gap
112.51%
98.57%
98.57%
29.55%
29.55%
29.55%
CPXPARAM_MIP_Cuts_CPXPARAM_MIP_Cuts_Gomory-CPXPARAM_MIP_Cuts_Disjunctive-CPXPARAM_MIP_Cuts_MIRCut-CPXPARAM_MIP_Cuts_Covers-CPXPARAM_MIP_Cuts_FlowCovers 0
Instance76
CPXPARAM_MIP_Cuts_CPXPARAM_MIP_Cuts_Gomory-CPXPARAM_MIP_Cuts_Disjunctive-CPXPARAM_MIP_Cuts_MIRCut-CPXPARAM_MIP_Cuts_Covers-CPXPARAM_MIP_Cuts_FlowCovers 0
Instance77
CPXPARAM_MIP_Cuts_CPXPARAM_MIP_Cuts_Gomory-CPXPARAM_MIP_Cuts_Disjunctive-CPXPARAM_MIP_Cuts_MIRCut-CPXPARAM_MIP_Cuts_Covers-CPXPARAM_MIP_Cuts_FlowCovers 0
Instance78
CPXPARAM_MIP_Cuts_CPXPARAM_MIP_Cuts_Gomory-CPXPARAM_MIP_Cuts_Disjunctive-CPXPARAM_MIP_Cuts_MIRCut-CPXPARAM_MIP_Cuts_Covers-CPXPARAM_MIP_Cuts_FlowCovers 2
Instance79
CPXPARAM_MIP_Cuts_CPXPARAM_MIP_Cuts_Gomory-CPXPARAM_MIP_Cuts_Disjunctive-CPXPARAM_MIP_Cuts_MIRCut-CPXPARAM_MIP_Cuts_Covers-CPXPARAM_MIP_Cuts_FlowCovers 2
Instance80
Gap



1.76%
1.76%
1.76%
1.49%
1.40%
1.31%
1.31%
0.00%
CPXPARAM_MIP_Cuts_CPXPARAM_MIP_Cuts_Gomory-CPXPARAM_MIP_Cuts_Disjunctive-CPXPARAM_MIP_Cuts_MIRCut-CPXPARAM_MIP_Cuts_Covers-CPXPARAM_MIP_Cuts_FlowCovers 0
Instance81
CPXPARAM_MIP_Cuts_CPXPARAM_MIP_Cuts_Gomory-CPXPARAM_MIP_Cuts_Disjunctive-CPXPARAM_MIP_Cuts_MIRCut-CPXPARAM_MIP_Cuts_Covers-CPXPARAM_MIP_Cuts_FlowCovers 0
Instance82
CPXPARAM_MIP_Cuts_CPXPARAM_MIP_Cuts_Gomory-CPXPARAM_MIP_Cuts_Disjunctive-CPXPARAM_MIP_Cuts_MIRCut-CPXPARAM_MIP_Cuts_Covers-CPXPARAM_MIP_Cuts_FlowCovers 0
Instance83
CPXPARAM_MIP_Cuts_CPXPARAM_MIP_Cuts_Gomory-CPXPARAM_MIP_Cuts_Disjunctive-CPXPARAM_MIP_Cuts_MIRCut-CPXPARAM_MIP_Cuts_Covers-CPXPARAM_MIP_Cuts_FlowCovers 2
Instance84
CPXPARAM_MIP_Cuts_CPXPARAM_MIP_Cuts_Gomory-CPXPARAM_MIP_Cuts_Disjunctive-CPXPARAM_MIP_Cuts_MIRCut-CPXPARAM_MIP_Cuts_Covers-CPXPARAM_MIP_Cuts_FlowCovers 3
Instance85
Gap



46.43%
43.00%
41.84%
40.64%
40.58%
40.48%
CPXPARAM_MIP_Cuts_CPXPARAM_MIP_Cuts_Gomory-CPXPARAM_MIP_Cuts_Disjunctive-CPXPARAM_MIP_Cuts_MIRCut-CPXPARAM_MIP_Cuts_Covers-CPXPARAM_MIP_Cuts_FlowCovers 0
Instance86
CPXPARAM_MIP_Cuts_CPXPARAM_MIP_Cuts_Gomory-CPXPARAM_MIP_Cuts_Disjunctive-CPXPARAM_MIP_Cuts_MIRCut-CPXPARAM_MIP_Cuts_Covers-CPXPARAM_MIP_Cuts_FlowCovers 1
Instance87
CPXPARAM_MIP_Cuts_CPXPARAM_MIP_Cuts_Gomory-CPXPARAM_MIP_Cuts_Disjunctive-CPXPARAM_MIP_Cuts_MIRCut-CPXPARAM_MIP_Cuts_Covers-CPXPARAM_MIP_Cuts_FlowCovers 1
Instance88
CPXPARAM_MIP_Cuts_CPXPARAM_MIP_Cuts_Gomory-CPXPARAM_MIP_Cuts_Disjunctive-CPXPARAM_MIP_Cuts_MIRCut-CPXPARAM_MIP_Cuts_Covers-CPXPARAM_MIP_Cuts_FlowCovers 4
Instance89
CPXPARAM_MIP_Cuts_CPXPARAM_MIP_Cuts_Gomory-CPXPARAM_MIP_Cuts_Disjunctive-CPXPARAM_MIP_Cuts_MIRCut-CPXPARAM_MIP_Cuts_Covers-CPXPARAM_MIP_Cuts_FlowCovers 5
Instance90
Gap
110.91%
93.14%
93.14%
0.05%
0.05%
0.05%
0
CPXPARAM_MIP_Cuts_CPXPARAM_MIP_Cuts_Gomory-CPXPARAM_MIP_Cuts_Disjunctive-CPXPARAM_MIP_Cuts_MIRCut-CPXPARAM_MIP_Cuts_Covers-CPXPARAM_MIP_Cuts_FlowCovers 0
Instance91
CPXPARAM_MIP_Cuts_CPXPARAM_MIP_Cuts_Gomory-CPXPARAM_MIP_Cuts_Disjunctive-CPXPARAM_MIP_Cuts_MIRCut-CPXPARAM_MIP_Cuts_Covers-CPXPARAM_MIP_Cuts_FlowCovers 0
Instance92
CPXPARAM_MIP_Cuts_CPXPARAM_MIP_Cuts_Gomory-CPXPARAM_MIP_Cuts_Disjunctive-CPXPARAM_MIP_Cuts_MIRCut-CPXPARAM_MIP_Cuts_Covers-CPXPARAM_MIP_Cuts_FlowCovers 0
Instance93
CPXPARAM_MIP_Cuts_CPXPARAM_MIP_Cuts_Gomory-CPXPARAM_MIP_Cuts_Disjunctive-CPXPARAM_MIP_Cuts_MIRCut-CPXPARAM_MIP_Cuts_Covers-CPXPARAM_MIP_Cuts_FlowCovers 2
Instance94
CPXPARAM_MIP_Cuts_CPXPARAM_MIP_Cuts_Gomory-CPXPARAM_MIP_Cuts_Disjunctive-CPXPARAM_MIP_Cuts_MIRCut-CPXPARAM_MIP_Cuts_Covers-CPXPARAM_MIP_Cuts_FlowCovers 2
Instance95
Gap
114.31%
97.72%
97.72%
1.26%
1.26%
1.26%
1.26%
1.26%
0.93%
CPXPARAM_MIP_Cuts_CPXPARAM_MIP_Cuts_Gomory-CPXPARAM_MIP_Cuts_Disjunctive-CPXPARAM_MIP_Cuts_MIRCut-CPXPARAM_MIP_Cuts_Covers-CPXPARAM_MIP_Cuts_FlowCovers 0
Instance96
CPXPARAM_MIP_Cuts_CPXPARAM_MIP_Cuts_Gomory-CPXPARAM_MIP_Cuts_Disjunctive-CPXPARAM_MIP_Cuts_MIRCut-CPXPARAM_MIP_Cuts_Covers-CPXPARAM_MIP_Cuts_FlowCovers 0
Instance97
CPXPARAM_MIP_Cuts_CPXPARAM_MIP_Cuts_Gomory-CPXPARAM_MIP_Cuts_Disjunctive-CPXPARAM_MIP_Cuts_MIRCut-CPXPARAM_MIP_Cuts_Covers-CPXPARAM_MIP_Cuts_FlowCovers 0
Instance98
CPXPARAM_MIP_Cuts_CPXPARAM_MIP_Cuts_Gomory-CPXPARAM_MIP_Cuts_Disjunctive-CPXPARAM_MIP_Cuts_MIRCut-CPXPARAM_MIP_Cuts_Covers-CPXPARAM_MIP_Cuts_FlowCovers 2
Instance99
CPXPARAM_MIP_Cuts_CPXPARAM_MIP_Cuts_Gomory-CPXPARAM_MIP_Cuts_Disjunctive-CPXPARAM_MIP_Cuts_MIRCut-CPXPARAM_MIP_Cuts_Covers-CPXPARAM_MIP_Cuts_FlowCovers 2
Instance100
Gap


0.00%
CPXPARAM_MIP_Cuts_CPXPARAM_MIP_Cuts_Gomory-CPXPARAM_MIP_Cuts_Disjunctive-CPXPARAM_MIP_Cuts_MIRCut-CPXPARAM_MIP_Cuts_Covers-CPXPARAM_MIP_Cuts_FlowCovers 0
Instance101
CPXPARAM_MIP_Cuts_CPXPARAM_MIP_Cuts_Gomory-CPXPARAM_MIP_Cuts_Disjunctive-CPXPARAM_MIP_Cuts_MIRCut-CPXPARAM_MIP_Cuts_Covers-CPXPARAM_MIP_Cuts_FlowCovers 0
Instance102
CPXPARAM_MIP_Cuts_CPXPARAM_MIP_Cuts_Gomory-CPXPARAM_MIP_Cuts_Disjunctive-CPXPARAM_MIP_Cuts_MIRCut-CPXPARAM_MIP_Cuts_Covers-CPXPARAM_MIP_Cuts_FlowCovers 0
Instance103
CPXPARAM_MIP_Cuts_CPXPARAM_MIP_Cuts_Gomory-CPXPARAM_MIP_Cuts_Disjunctive-CPXPARAM_MIP_Cuts_MIRCut-CPXPARAM_MIP_Cuts_Covers-CPXPARAM_MIP_Cuts_FlowCovers 0
Instance104
CPXPARAM_MIP_Cuts_CPXPARAM_MIP_Cuts_Gomory-CPXPARAM_MIP_Cuts_Disjunctive-CPXPARAM_MIP_Cuts_MIRCut-CPXPARAM_MIP_Cuts_Covers-CPXPARAM_MIP_Cuts_FlowCovers 0
Instance105
Gap



23.55%
21.89%
12.55%
12.55%
6.52%
5.08%
0
CPXPARAM_MIP_Cuts_CPXPARAM_MIP_Cuts_Gomory-CPXPARAM_MIP_Cuts_Disjunctive-CPXPARAM_MIP_Cuts_MIRCut-CPXPARAM_MIP_Cuts_Covers-CPXPARAM_MIP_Cuts_FlowCovers 0
Instance106
CPXPARAM_MIP_Cuts_CPXPARAM_MIP_Cuts_Gomory-CPXPARAM_MIP_Cuts_Disjunctive-CPXPARAM_MIP_Cuts_MIRCut-CPXPARAM_MIP_Cuts_Covers-CPXPARAM_MIP_Cuts_FlowCovers 0
Instance107
CPXPARAM_MIP_Cuts_CPXPARAM_MIP_Cuts_Gomory-CPXPARAM_MIP_Cuts_Disjunctive-CPXPARAM_MIP_Cuts_MIRCut-CPXPARAM_MIP_Cuts_Covers-CPXPARAM_MIP_Cuts_FlowCovers 0
Instance108
CPXPARAM_MIP_Cuts_CPXPARAM_MIP_Cuts_Gomory-CPXPARAM_MIP_Cuts_Disjunctive-CPXPARAM_MIP_Cuts_MIRCut-CPXPARAM_MIP_Cuts_Covers-CPXPARAM_MIP_Cuts_FlowCovers 0
Instance109
CPXPARAM_MIP_Cuts_CPXPARAM_MIP_Cuts_Gomory-CPXPARAM_MIP_Cuts_Disjunctive-CPXPARAM_MIP_Cuts_MIRCut-CPXPARAM_MIP_Cuts_Covers-CPXPARAM_MIP_Cuts_FlowCovers 1
Instance110
Gap

0.39%
0.39%
0.39%
0.39%
0.39%
0.09%
0.04%
0.00%
CPXPARAM_MIP_Cuts_CPXPARAM_MIP_Cuts_Gomory-CPXPARAM_MIP_Cuts_Disjunctive-CPXPARAM_MIP_Cuts_MIRCut-CPXPARAM_MIP_Cuts_Covers-CPXPARAM_MIP_Cuts_FlowCovers 0
Instance111
CPXPARAM_MIP_Cuts_CPXPARAM_MIP_Cuts_Gomory-CPXPARAM_MIP_Cuts_Disjunctive-CPXPARAM_MIP_Cuts_MIRCut-CPXPARAM_MIP_Cuts_Covers-CPXPARAM_MIP_Cuts_FlowCovers 0
Instance112
CPXPARAM_MIP_Cuts_CPXPARAM_MIP_Cuts_Gomory-CPXPARAM_MIP_Cuts_Disjunctive-CPXPARAM_MIP_Cuts_MIRCut-CPXPARAM_MIP_Cuts_Covers-CPXPARAM_MIP_Cuts_FlowCovers 0
Instance113
CPXPARAM_MIP_Cuts_CPXPARAM_MIP_Cuts_Gomory-CPXPARAM_MIP_Cuts_Disjunctive-CPXPARAM_MIP_Cuts_MIRCut-CPXPARAM_MIP_Cuts_Covers-CPXPARAM_MIP_Cuts_FlowCovers 2
Instance114
CPXPARAM_MIP_Cuts_CPXPARAM_MIP_Cuts_Gomory-CPXPARAM_MIP_Cuts_Disjunctive-CPXPARAM_MIP_Cuts_MIRCut-CPXPARAM_MIP_Cuts_Covers-CPXPARAM_MIP_Cuts_FlowCovers 1
Instance115
Gap

3.15%
3.15%
3.15%
3.10%
0
CPXPARAM_MIP_Cuts_CPXPARAM_MIP_Cuts_Gomory-CPXPARAM_MIP_Cuts_Disjunctive-CPXPARAM_MIP_Cuts_MIRCut-CPXPARAM_MIP_Cuts_Covers-CPXPARAM_MIP_Cuts_FlowCovers 0
Instance116
CPXPARAM_MIP_Cuts_CPXPARAM_MIP_Cuts_Gomory-CPXPARAM_MIP_Cuts_Disjunctive-CPXPARAM_MIP_Cuts_MIRCut-CPXPARAM_MIP_Cuts_Covers-CPXPARAM_MIP_Cuts_FlowCovers 0
Instance117
CPXPARAM_MIP_Cuts_CPXPARAM_MIP_Cuts_Gomory-CPXPARAM_MIP_Cuts_Disjunctive-CPXPARAM_MIP_Cuts_MIRCut-CPXPARAM_MIP_Cuts_Covers-CPXPARAM_MIP_Cuts_FlowCovers 0
Instance118
CPXPARAM_MIP_Cuts_CPXPARAM_MIP_Cuts_Gomory-CPXPARAM_MIP_Cuts_Disjunctive-CPXPARAM_MIP_Cuts_MIRCut-CPXPARAM_MIP_Cuts_Covers-CPXPARAM_MIP_Cuts_FlowCovers 1
Instance119
CPXPARAM_MIP_Cuts_CPXPARAM_MIP_Cuts_Gomory-CPXPARAM_MIP_Cuts_Disjunctive-CPXPARAM_MIP_Cuts_MIRCut-CPXPARAM_MIP_Cuts_Covers-CPXPARAM_MIP_Cuts_FlowCovers 0
Instance120
Gap

10.00%
9.58%
7.36%
7.36%
7.36%
6.65%
6.19%
5.49%
5.49%
0
CPXPARAM_MIP_Cuts_CPXPARAM_MIP_Cuts_Gomory-CPXPARAM_MIP_Cuts_Disjunctive-CPXPARAM_MIP_Cuts_MIRCut-CPXPARAM_MIP_Cuts_Covers-CPXPARAM_MIP_Cuts_FlowCovers 0
Instance121
CPXPARAM_MIP_Cuts_CPXPARAM_MIP_Cuts_Gomory-CPXPARAM_MIP_Cuts_Disjunctive-CPXPARAM_MIP_Cuts_MIRCut-CPXPARAM_MIP_Cuts_Covers-CPXPARAM_MIP_Cuts_FlowCovers 1
Instance122
CPXPARAM_MIP_Cuts_CPXPARAM_MIP_Cuts_Gomory-CPXPARAM_MIP_Cuts_Disjunctive-CPXPARAM_MIP_Cuts_MIRCut-CPXPARAM_MIP_Cuts_Covers-CPXPARAM_MIP_Cuts_FlowCovers 0
Instance123
CPXPARAM_MIP_Cuts_CPXPARAM_MIP_Cuts_Gomory-CPXPARAM_MIP_Cuts_Disjunctive-CPXPARAM_MIP_Cuts_MIRCut-CPXPARAM_MIP_Cuts_Covers-CPXPARAM_MIP_Cuts_FlowCovers 7
Instance124
CPXPARAM_MIP_Cuts_CPXPARAM_MIP_Cuts_Gomory-CPXPARAM_MIP_Cuts_Disjunctive-CPXPARAM_MIP_Cuts_MIRCut-CPXPARAM_MIP_Cuts_Covers-CPXPARAM_MIP_Cuts_FlowCovers 1
Instance125
Gap



0.00%
CPXPARAM_MIP_Cuts_CPXPARAM_MIP_Cuts_Gomory-CPXPARAM_MIP_Cuts_Disjunctive-CPXPARAM_MIP_Cuts_MIRCut-CPXPARAM_MIP_Cuts_Covers-CPXPARAM_MIP_Cuts_FlowCovers 0
Instance126
CPXPARAM_MIP_Cuts_CPXPARAM_MIP_Cuts_Gomory-CPXPARAM_MIP_Cuts_Disjunctive-CPXPARAM_MIP_Cuts_MIRCut-CPXPARAM_MIP_Cuts_Covers-CPXPARAM_MIP_Cuts_FlowCovers 0
Instance127
CPXPARAM_MIP_Cuts_CPXPARAM_MIP_Cuts_Gomory-CPXPARAM_MIP_Cuts_Disjunctive-CPXPARAM_MIP_Cuts_MIRCut-CPXPARAM_MIP_Cuts_Covers-CPXPARAM_MIP_Cuts_FlowCovers 0
Instance128
CPXPARAM_MIP_Cuts_CPXPARAM_MIP_Cuts_Gomory-CPXPARAM_MIP_Cuts_Disjunctive-CPXPARAM_MIP_Cuts_MIRCut-CPXPARAM_MIP_Cuts_Covers-CPXPARAM_MIP_Cuts_FlowCovers 0
Instance129
CPXPARAM_MIP_Cuts_CPXPARAM_MIP_Cuts_Gomory-CPXPARAM_MIP_Cuts_Disjunctive-CPXPARAM_MIP_Cuts_MIRCut-CPXPARAM_MIP_Cuts_Covers-CPXPARAM_MIP_Cuts_FlowCovers 0
Instance130
Gap
0.00%
CPXPARAM_MIP_Cuts_CPXPARAM_MIP_Cuts_Gomory-CPXPARAM_MIP_Cuts_Disjunctive-CPXPARAM_MIP_Cuts_MIRCut-CPXPARAM_MIP_Cuts_Covers-CPXPARAM_MIP_Cuts_FlowCovers 0
Instance131
CPXPARAM_MIP_Cuts_CPXPARAM_MIP_Cuts_Gomory-CPXPARAM_MIP_Cuts_Disjunctive-CPXPARAM_MIP_Cuts_MIRCut-CPXPARAM_MIP_Cuts_Covers-CPXPARAM_MIP_Cuts_FlowCovers 0
Instance132
CPXPARAM_MIP_Cuts_CPXPARAM_MIP_Cuts_Gomory-CPXPARAM_MIP_Cuts_Disjunctive-CPXPARAM_MIP_Cuts_MIRCut-CPXPARAM_MIP_Cuts_Covers-CPXPARAM_MIP_Cuts_FlowCovers 0
Instance133
CPXPARAM_MIP_Cuts_CPXPARAM_MIP_Cuts_Gomory-CPXPARAM_MIP_Cuts_Disjunctive-CPXPARAM_MIP_Cuts_MIRCut-CPXPARAM_MIP_Cuts_Covers-CPXPARAM_MIP_Cuts_FlowCovers 0
Instance134
CPXPARAM_MIP_Cuts_CPXPARAM_MIP_Cuts_Gomory-CPXPARAM_MIP_Cuts_Disjunctive-CPXPARAM_MIP_Cuts_MIRCut-CPXPARAM_MIP_Cuts_Covers-CPXPARAM_MIP_Cuts_FlowCovers 0
Instance135
Gap

0.42%
0.42%
0.42%
0.42%
0.42%
0.02%
CPXPARAM_MIP_Cuts_CPXPARAM_MIP_Cuts_Gomory-CPXPARAM_MIP_Cuts_Disjunctive-CPXPARAM_MIP_Cuts_MIRCut-CPXPARAM_MIP_Cuts_Covers-CPXPARAM_MIP_Cuts_FlowCovers 0
Instance136
CPXPARAM_MIP_Cuts_CPXPARAM_MIP_Cuts_Gomory-CPXPARAM_MIP_Cuts_Disjunctive-CPXPARAM_MIP_Cuts_MIRCut-CPXPARAM_MIP_Cuts_Covers-CPXPARAM_MIP_Cuts_FlowCovers 0
Instance137
CPXPARAM_MIP_Cuts_CPXPARAM_MIP_Cuts_Gomory-CPXPARAM_MIP_Cuts_Disjunctive-CPXPARAM_MIP_Cuts_MIRCut-CPXPARAM_MIP_Cuts_Covers-CPXPARAM_MIP_Cuts_FlowCovers 0
Instance138
CPXPARAM_MIP_Cuts_CPXPARAM_MIP_Cuts_Gomory-CPXPARAM_MIP_Cuts_Disjunctive-CPXPARAM_MIP_Cuts_MIRCut-CPXPARAM_MIP_Cuts_Covers-CPXPARAM_MIP_Cuts_FlowCovers 1
Instance139
CPXPARAM_MIP_Cuts_CPXPARAM_MIP_Cuts_Gomory-CPXPARAM_MIP_Cuts_Disjunctive-CPXPARAM_MIP_Cuts_MIRCut-CPXPARAM_MIP_Cuts_Covers-CPXPARAM_MIP_Cuts_FlowCovers 1
Instance140
Gap





2.98%
2.98%
2.98%
2.96%
2.91%
0
CPXPARAM_MIP_Cuts_CPXPARAM_MIP_Cuts_Gomory-CPXPARAM_MIP_Cuts_Disjunctive-CPXPARAM_MIP_Cuts_MIRCut-CPXPARAM_MIP_Cuts_Covers-CPXPARAM_MIP_Cuts_FlowCovers 2
Instance141
CPXPARAM_MIP_Cuts_CPXPARAM_MIP_Cuts_Gomory-CPXPARAM_MIP_Cuts_Disjunctive-CPXPARAM_MIP_Cuts_MIRCut-CPXPARAM_MIP_Cuts_Covers-CPXPARAM_MIP_Cuts_FlowCovers 0
Instance142
CPXPARAM_MIP_Cuts_CPXPARAM_MIP_Cuts_Gomory-CPXPARAM_MIP_Cuts_Disjunctive-CPXPARAM_MIP_Cuts_MIRCut-CPXPARAM_MIP_Cuts_Covers-CPXPARAM_MIP_Cuts_FlowCovers 0
Instance143
CPXPARAM_MIP_Cuts_CPXPARAM_MIP_Cuts_Gomory-CPXPARAM_MIP_Cuts_Disjunctive-CPXPARAM_MIP_Cuts_MIRCut-CPXPARAM_MIP_Cuts_Covers-CPXPARAM_MIP_Cuts_FlowCovers 2
Instance144
CPXPARAM_MIP_Cuts_CPXPARAM_MIP_Cuts_Gomory-CPXPARAM_MIP_Cuts_Disjunctive-CPXPARAM_MIP_Cuts_MIRCut-CPXPARAM_MIP_Cuts_Covers-CPXPARAM_MIP_Cuts_FlowCovers 3
Instance145
Gap
111.49%
406.57%
82.87%
81.61%
79.72%
79.06%
78.69%
78.22%
78.09%
49.33%
44.90%
CPXPARAM_MIP_Cuts_CPXPARAM_MIP_Cuts_Gomory-CPXPARAM_MIP_Cuts_Disjunctive-CPXPARAM_MIP_Cuts_MIRCut-CPXPARAM_MIP_Cuts_Covers-CPXPARAM_MIP_Cuts_FlowCovers 0
Instance146
CPXPARAM_MIP_Cuts_CPXPARAM_MIP_Cuts_Gomory-CPXPARAM_MIP_Cuts_Disjunctive-CPXPARAM_MIP_Cuts_MIRCut-CPXPARAM_MIP_Cuts_Covers-CPXPARAM_MIP_Cuts_FlowCovers 0
Instance147
CPXPARAM_MIP_Cuts_CPXPARAM_MIP_Cuts_Gomory-CPXPARAM_MIP_Cuts_Disjunctive-CPXPARAM_MIP_Cuts_MIRCut-CPXPARAM_MIP_Cuts_Covers-CPXPARAM_MIP_Cuts_FlowCovers 0
Instance148
CPXPARAM_MIP_Cuts_CPXPARAM_MIP_Cuts_Gomory-CPXPARAM_MIP_Cuts_Disjunctive-CPXPARAM_MIP_Cuts_MIRCut-CPXPARAM_MIP_Cuts_Covers-CPXPARAM_MIP_Cuts_FlowCovers 9
Instance149
CPXPARAM_MIP_Cuts_CPXPARAM_MIP_Cuts_Gomory-CPXPARAM_MIP_Cuts_Disjunctive-CPXPARAM_MIP_Cuts_MIRCut-CPXPARAM_MIP_Cuts_Covers-CPXPARAM_MIP_Cuts_FlowCovers 0
Instance150
Gap
120.75%
227.70%
17.33%
17.33%
17.33%
17.33%
CPXPARAM_MIP_Cuts_CPXPARAM_MIP_Cuts_Gomory-CPXPARAM_MIP_Cuts_Disjunctive-CPXPARAM_MIP_Cuts_MIRCut-CPXPARAM_MIP_Cuts_Covers-CPXPARAM_MIP_Cuts_FlowCovers 0
Instance151
CPXPARAM_MIP_Cuts_CPXPARAM_MIP_Cuts_Gomory-CPXPARAM_MIP_Cuts_Disjunctive-CPXPARAM_MIP_Cuts_MIRCut-CPXPARAM_MIP_Cuts_Covers-CPXPARAM_MIP_Cuts_FlowCovers 0
Instance152
CPXPARAM_MIP_Cuts_CPXPARAM_MIP_Cuts_Gomory-CPXPARAM_MIP_Cuts_Disjunctive-CPXPARAM_MIP_Cuts_MIRCut-CPXPARAM_MIP_Cuts_Covers-CPXPARAM_MIP_Cuts_FlowCovers 0
Instance153
CPXPARAM_MIP_Cuts_CPXPARAM_MIP_Cuts_Gomory-CPXPARAM_MIP_Cuts_Disjunctive-CPXPARAM_MIP_Cuts_MIRCut-CPXPARAM_MIP_Cuts_Covers-CPXPARAM_MIP_Cuts_FlowCovers 3
Instance154
CPXPARAM_MIP_Cuts_CPXPARAM_MIP_Cuts_Gomory-CPXPARAM_MIP_Cuts_Disjunctive-CPXPARAM_MIP_Cuts_MIRCut-CPXPARAM_MIP_Cuts_Covers-CPXPARAM_MIP_Cuts_FlowCovers 0
Instance155
Gap

5.20%
5.20%
5.20%
5.20%
5.20%
0.00%
CPXPARAM_MIP_Cuts_CPXPARAM_MIP_Cuts_Gomory-CPXPARAM_MIP_Cuts_Disjunctive-CPXPARAM_MIP_Cuts_MIRCut-CPXPARAM_MIP_Cuts_Covers-CPXPARAM_MIP_Cuts_FlowCovers 0
Instance156
CPXPARAM_MIP_Cuts_CPXPARAM_MIP_Cuts_Gomory-CPXPARAM_MIP_Cuts_Disjunctive-CPXPARAM_MIP_Cuts_MIRCut-CPXPARAM_MIP_Cuts_Covers-CPXPARAM_MIP_Cuts_FlowCovers 0
Instance157
CPXPARAM_MIP_Cuts_CPXPARAM_MIP_Cuts_Gomory-CPXPARAM_MIP_Cuts_Disjunctive-CPXPARAM_MIP_Cuts_MIRCut-CPXPARAM_MIP_Cuts_Covers-CPXPARAM_MIP_Cuts_FlowCovers 0
Instance158
CPXPARAM_MIP_Cuts_CPXPARAM_MIP_Cuts_Gomory-CPXPARAM_MIP_Cuts_Disjunctive-CPXPARAM_MIP_Cuts_MIRCut-CPXPARAM_MIP_Cuts_Covers-CPXPARAM_MIP_Cuts_FlowCovers 2
Instance159
CPXPARAM_MIP_Cuts_CPXPARAM_MIP_Cuts_Gomory-CPXPARAM_MIP_Cuts_Disjunctive-CPXPARAM_MIP_Cuts_MIRCut-CPXPARAM_MIP_Cuts_Covers-CPXPARAM_MIP_Cuts_FlowCovers 0
Instance160
Gap





3.72%
3.72%
3.72%
3.49%
0
CPXPARAM_MIP_Cuts_CPXPARAM_MIP_Cuts_Gomory-CPXPARAM_MIP_Cuts_Disjunctive-CPXPARAM_MIP_Cuts_MIRCut-CPXPARAM_MIP_Cuts_Covers-CPXPARAM_MIP_Cuts_FlowCovers 0
Instance161
CPXPARAM_MIP_Cuts_CPXPARAM_MIP_Cuts_Gomory-CPXPARAM_MIP_Cuts_Disjunctive-CPXPARAM_MIP_Cuts_MIRCut-CPXPARAM_MIP_Cuts_Covers-CPXPARAM_MIP_Cuts_FlowCovers 0
Instance162
CPXPARAM_MIP_Cuts_CPXPARAM_MIP_Cuts_Gomory-CPXPARAM_MIP_Cuts_Disjunctive-CPXPARAM_MIP_Cuts_MIRCut-CPXPARAM_MIP_Cuts_Covers-CPXPARAM_MIP_Cuts_FlowCovers 1
Instance163
CPXPARAM_MIP_Cuts_CPXPARAM_MIP_Cuts_Gomory-CPXPARAM_MIP_Cuts_Disjunctive-CPXPARAM_MIP_Cuts_MIRCut-CPXPARAM_MIP_Cuts_Covers-CPXPARAM_MIP_Cuts_FlowCovers 2
Instance164
CPXPARAM_MIP_Cuts_CPXPARAM_MIP_Cuts_Gomory-CPXPARAM_MIP_Cuts_Disjunctive-CPXPARAM_MIP_Cuts_MIRCut-CPXPARAM_MIP_Cuts_Covers-CPXPARAM_MIP_Cuts_FlowCovers 2
Instance165
Gap



36.81%
0
CPXPARAM_MIP_Cuts_CPXPARAM_MIP_Cuts_Gomory-CPXPARAM_MIP_Cuts_Disjunctive-CPXPARAM_MIP_Cuts_MIRCut-CPXPARAM_MIP_Cuts_Covers-CPXPARAM_MIP_Cuts_FlowCovers 0
Instance166
CPXPARAM_MIP_Cuts_CPXPARAM_MIP_Cuts_Gomory-CPXPARAM_MIP_Cuts_Disjunctive-CPXPARAM_MIP_Cuts_MIRCut-CPXPARAM_MIP_Cuts_Covers-CPXPARAM_MIP_Cuts_FlowCovers 0
Instance167
CPXPARAM_MIP_Cuts_CPXPARAM_MIP_Cuts_Gomory-CPXPARAM_MIP_Cuts_Disjunctive-CPXPARAM_MIP_Cuts_MIRCut-CPXPARAM_MIP_Cuts_Covers-CPXPARAM_MIP_Cuts_FlowCovers 0
Instance168
CPXPARAM_MIP_Cuts_CPXPARAM_MIP_Cuts_Gomory-CPXPARAM_MIP_Cuts_Disjunctive-CPXPARAM_MIP_Cuts_MIRCut-CPXPARAM_MIP_Cuts_Covers-CPXPARAM_MIP_Cuts_FlowCovers 1
Instance169
CPXPARAM_MIP_Cuts_CPXPARAM_MIP_Cuts_Gomory-CPXPARAM_MIP_Cuts_Disjunctive-CPXPARAM_MIP_Cuts_MIRCut-CPXPARAM_MIP_Cuts_Covers-CPXPARAM_MIP_Cuts_FlowCovers 3
Instance170
Gap

0.14%
0
CPXPARAM_MIP_Cuts_CPXPARAM_MIP_Cuts_Gomory-CPXPARAM_MIP_Cuts_Disjunctive-CPXPARAM_MIP_Cuts_MIRCut-CPXPARAM_MIP_Cuts_Covers-CPXPARAM_MIP_Cuts_FlowCovers 0
Instance171
CPXPARAM_MIP_Cuts_CPXPARAM_MIP_Cuts_Gomory-CPXPARAM_MIP_Cuts_Disjunctive-CPXPARAM_MIP_Cuts_MIRCut-CPXPARAM_MIP_Cuts_Covers-CPXPARAM_MIP_Cuts_FlowCovers 0
Instance172
CPXPARAM_MIP_Cuts_CPXPARAM_MIP_Cuts_Gomory-CPXPARAM_MIP_Cuts_Disjunctive-CPXPARAM_MIP_Cuts_MIRCut-CPXPARAM_MIP_Cuts_Covers-CPXPARAM_MIP_Cuts_FlowCovers 0
Instance173
CPXPARAM_MIP_Cuts_CPXPARAM_MIP_Cuts_Gomory-CPXPARAM_MIP_Cuts_Disjunctive-CPXPARAM_MIP_Cuts_MIRCut-CPXPARAM_MIP_Cuts_Covers-CPXPARAM_MIP_Cuts_FlowCovers 0
Instance174
CPXPARAM_MIP_Cuts_CPXPARAM_MIP_Cuts_Gomory-CPXPARAM_MIP_Cuts_Disjunctive-CPXPARAM_MIP_Cuts_MIRCut-CPXPARAM_MIP_Cuts_Covers-CPXPARAM_MIP_Cuts_FlowCovers 0
Instance175
Gap

2.41%
2.41%
2.41%
2.35%
0
CPXPARAM_MIP_Cuts_CPXPARAM_MIP_Cuts_Gomory-CPXPARAM_MIP_Cuts_Disjunctive-CPXPARAM_MIP_Cuts_MIRCut-CPXPARAM_MIP_Cuts_Covers-CPXPARAM_MIP_Cuts_FlowCovers 0
Instance176
CPXPARAM_MIP_Cuts_CPXPARAM_MIP_Cuts_Gomory-CPXPARAM_MIP_Cuts_Disjunctive-CPXPARAM_MIP_Cuts_MIRCut-CPXPARAM_MIP_Cuts_Covers-CPXPARAM_MIP_Cuts_FlowCovers 0
Instance177
CPXPARAM_MIP_Cuts_CPXPARAM_MIP_Cuts_Gomory-CPXPARAM_MIP_Cuts_Disjunctive-CPXPARAM_MIP_Cuts_MIRCut-CPXPARAM_MIP_Cuts_Covers-CPXPARAM_MIP_Cuts_FlowCovers 0
Instance178
CPXPARAM_MIP_Cuts_CPXPARAM_MIP_Cuts_Gomory-CPXPARAM_MIP_Cuts_Disjunctive-CPXPARAM_MIP_Cuts_MIRCut-CPXPARAM_MIP_Cuts_Covers-CPXPARAM_MIP_Cuts_FlowCovers 1
Instance179
CPXPARAM_MIP_Cuts_CPXPARAM_MIP_Cuts_Gomory-CPXPARAM_MIP_Cuts_Disjunctive-CPXPARAM_MIP_Cuts_MIRCut-CPXPARAM_MIP_Cuts_Covers-CPXPARAM_MIP_Cuts_FlowCovers 0
Instance180
Gap



6.99%
6.99%
6.99%
6.43%
6.27%
6.07%
6.05%
6.05%
0
CPXPARAM_MIP_Cuts_CPXPARAM_MIP_Cuts_Gomory-CPXPARAM_MIP_Cuts_Disjunctive-CPXPARAM_MIP_Cuts_MIRCut-CPXPARAM_MIP_Cuts_Covers-CPXPARAM_MIP_Cuts_FlowCovers 0
Instance181
CPXPARAM_MIP_Cuts_CPXPARAM_MIP_Cuts_Gomory-CPXPARAM_MIP_Cuts_Disjunctive-CPXPARAM_MIP_Cuts_MIRCut-CPXPARAM_MIP_Cuts_Covers-CPXPARAM_MIP_Cuts_FlowCovers 0
Instance182
CPXPARAM_MIP_Cuts_CPXPARAM_MIP_Cuts_Gomory-CPXPARAM_MIP_Cuts_Disjunctive-CPXPARAM_MIP_Cuts_MIRCut-CPXPARAM_MIP_Cuts_Covers-CPXPARAM_MIP_Cuts_FlowCovers 0
Instance183
CPXPARAM_MIP_Cuts_CPXPARAM_MIP_Cuts_Gomory-CPXPARAM_MIP_Cuts_Disjunctive-CPXPARAM_MIP_Cuts_MIRCut-CPXPARAM_MIP_Cuts_Covers-CPXPARAM_MIP_Cuts_FlowCovers 5
Instance184
CPXPARAM_MIP_Cuts_CPXPARAM_MIP_Cuts_Gomory-CPXPARAM_MIP_Cuts_Disjunctive-CPXPARAM_MIP_Cuts_MIRCut-CPXPARAM_MIP_Cuts_Covers-CPXPARAM_MIP_Cuts_FlowCovers 1
Instance185
Gap










106.57%
106.17%
CPXPARAM_MIP_Cuts_CPXPARAM_MIP_Cuts_Gomory-CPXPARAM_MIP_Cuts_Disjunctive-CPXPARAM_MIP_Cuts_MIRCut-CPXPARAM_MIP_Cuts_Covers-CPXPARAM_MIP_Cuts_FlowCovers 1
Instance186
CPXPARAM_MIP_Cuts_CPXPARAM_MIP_Cuts_Gomory-CPXPARAM_MIP_Cuts_Disjunctive-CPXPARAM_MIP_Cuts_MIRCut-CPXPARAM_MIP_Cuts_Covers-CPXPARAM_MIP_Cuts_FlowCovers 0
Instance187
CPXPARAM_MIP_Cuts_CPXPARAM_MIP_Cuts_Gomory-CPXPARAM_MIP_Cuts_Disjunctive-CPXPARAM_MIP_Cuts_MIRCut-CPXPARAM_MIP_Cuts_Covers-CPXPARAM_MIP_Cuts_FlowCovers 0
Instance188
CPXPARAM_MIP_Cuts_CPXPARAM_MIP_Cuts_Gomory-CPXPARAM_MIP_Cuts_Disjunctive-CPXPARAM_MIP_Cuts_MIRCut-CPXPARAM_MIP_Cuts_Covers-CPXPARAM_MIP_Cuts_FlowCovers 2
Instance189
CPXPARAM_MIP_Cuts_CPXPARAM_MIP_Cuts_Gomory-CPXPARAM_MIP_Cuts_Disjunctive-CPXPARAM_MIP_Cuts_MIRCut-CPXPARAM_MIP_Cuts_Covers-CPXPARAM_MIP_Cuts_FlowCovers 8
Instance190
Gap

0.21%
0.21%
0.21%
0.21%
0
CPXPARAM_MIP_Cuts_CPXPARAM_MIP_Cuts_Gomory-CPXPARAM_MIP_Cuts_Disjunctive-CPXPARAM_MIP_Cuts_MIRCut-CPXPARAM_MIP_Cuts_Covers-CPXPARAM_MIP_Cuts_FlowCovers 0
Instance191
CPXPARAM_MIP_Cuts_CPXPARAM_MIP_Cuts_Gomory-CPXPARAM_MIP_Cuts_Disjunctive-CPXPARAM_MIP_Cuts_MIRCut-CPXPARAM_MIP_Cuts_Covers-CPXPARAM_MIP_Cuts_FlowCovers 0
Instance192
CPXPARAM_MIP_Cuts_CPXPARAM_MIP_Cuts_Gomory-CPXPARAM_MIP_Cuts_Disjunctive-CPXPARAM_MIP_Cuts_MIRCut-CPXPARAM_MIP_Cuts_Covers-CPXPARAM_MIP_Cuts_FlowCovers 0
Instance193
CPXPARAM_MIP_Cuts_CPXPARAM_MIP_Cuts_Gomory-CPXPARAM_MIP_Cuts_Disjunctive-CPXPARAM_MIP_Cuts_MIRCut-CPXPARAM_MIP_Cuts_Covers-CPXPARAM_MIP_Cuts_FlowCovers 1
Instance194
CPXPARAM_MIP_Cuts_CPXPARAM_MIP_Cuts_Gomory-CPXPARAM_MIP_Cuts_Disjunctive-CPXPARAM_MIP_Cuts_MIRCut-CPXPARAM_MIP_Cuts_Covers-CPXPARAM_MIP_Cuts_FlowCovers 1
Instance195
Gap


0.50%
0.50%
0.50%
0
CPXPARAM_MIP_Cuts_CPXPARAM_MIP_Cuts_Gomory-CPXPARAM_MIP_Cuts_Disjunctive-CPXPARAM_MIP_Cuts_MIRCut-CPXPARAM_MIP_Cuts_Covers-CPXPARAM_MIP_Cuts_FlowCovers 0
Instance196
CPXPARAM_MIP_Cuts_CPXPARAM_MIP_Cuts_Gomory-CPXPARAM_MIP_Cuts_Disjunctive-CPXPARAM_MIP_Cuts_MIRCut-CPXPARAM_MIP_Cuts_Covers-CPXPARAM_MIP_Cuts_FlowCovers 0
Instance197
CPXPARAM_MIP_Cuts_CPXPARAM_MIP_Cuts_Gomory-CPXPARAM_MIP_Cuts_Disjunctive-CPXPARAM_MIP_Cuts_MIRCut-CPXPARAM_MIP_Cuts_Covers-CPXPARAM_MIP_Cuts_FlowCovers 0
Instance198
CPXPARAM_MIP_Cuts_CPXPARAM_MIP_Cuts_Gomory-CPXPARAM_MIP_Cuts_Disjunctive-CPXPARAM_MIP_Cuts_MIRCut-CPXPARAM_MIP_Cuts_Covers-CPXPARAM_MIP_Cuts_FlowCovers 0
Instance199
CPXPARAM_MIP_Cuts_CPXPARAM_MIP_Cuts_Gomory-CPXPARAM_MIP_Cuts_Disjunctive-CPXPARAM_MIP_Cuts_MIRCut-CPXPARAM_MIP_Cuts_Covers-CPXPARAM_MIP_Cuts_FlowCovers 0
